100

14 68
76 80
82 54
65 15
25 53
95 47
15 54
62 32
79 76
74 43
13 24
46 29
55 66
22 100
26 86
98 17
82 71
85 87
18 31
48 80
24 71
36 21
87 67
50 58
15 18
81 14
83 25
48 29
14 46
57 99
63 42
17 33
12 79
80 75
51 57
67 81
34 49
61 92
82 52
66 93
73 52
90 27
28 20
34 45
50 61
79 23
31 81
57 27
17 53
53 57
57 93
42 72
86 51
32 57
45 61
40 58
93 31
37 71
37 33
70 14
50 91
69 19
84 36
21 77
71 20
99 86
50 23
91 91
99 16
57 74
77 43
87 27
90 31
73 84
48 92
10 52
25 15
21 74
17 79
25 50
40 68
54 97
49 88
58 95
68 63
44 86
89 44
87 26
11 30
65 49
54 16
56 69
81 99
63 42
78 62
84 24
40 91
32 76
81 57
41 13

163